Version identifier: 22.1.0.0 | 2022-03-09 | 1a383f8ce
CPXPARAM_Threads                                 1
CPXPARAM_MIP_Strategy_VariableSelect             3
CPXPARAM_TimeLimit                               599.99601740799994
Tried aggregator 1 time.
MIP Presolve eliminated 13 rows and 0 columns.
MIP Presolve modified 1 coefficients.
Reduced MIP has 1224 rows, 5050 columns, and 54476 nonzeros.
Reduced MIP has 5050 binaries, 0 generals, 0 SOSs, and 0 indicators.
Presolve time = 0.03 sec. (27.38 ticks)
Probing time = 0.00 sec. (5.45 ticks)
Tried aggregator 1 time.
Detecting symmetries...
Reduced MIP has 1224 rows, 5050 columns, and 54476 nonzeros.
Reduced MIP has 5050 binaries, 0 generals, 0 SOSs, and 0 indicators.
Presolve time = 0.04 sec. (33.29 ticks)
Probing time = 0.01 sec. (5.45 ticks)
Clique table members: 804.
MIP emphasis: balance optimality and feasibility.
MIP search method: dynamic search.
Parallel mode: none, using 1 thread.
Root relaxation solution time = 0.16 sec. (185.96 ticks)

        Nodes                                         Cuts/
   Node  Left     Objective  IInf  Best Integer    Best Bound    ItCnt     Gap

      0     0        0.0000   675                      0.0000     1530         
*     0+    0                            0.0000        0.0000             0.00%
      0     0        cutoff              0.0000        0.0000     1530    0.00%
Elapsed time = 0.73 sec. (673.69 ticks, tree = 0.01 MB, solutions = 1)

Root node processing (before b&c):
  Real time             =    0.73 sec. (673.84 ticks)
Sequential b&c:
  Real time             =    0.00 sec. (0.00 ticks)
                          ------------
Total (root+branch&cut) =    0.73 sec. (673.84 ticks)
Version identifier: 22.1.0.0 | 2022-03-09 | 1a383f8ce
CPXPARAM_Threads                                 1
CPXPARAM_MIP_Strategy_VariableSelect             3
CPXPARAM_TimeLimit                               599.23863839900002
Tried aggregator 1 time.
MIP Presolve eliminated 13 rows and 0 columns.
MIP Presolve modified 1 coefficients.
Reduced MIP has 1818 rows, 7525 columns, and 81503 nonzeros.
Reduced MIP has 7525 binaries, 0 generals, 0 SOSs, and 0 indicators.
Presolve time = 0.05 sec. (40.52 ticks)
Probing time = 0.01 sec. (6.69 ticks)
Tried aggregator 1 time.
Detecting symmetries...
Reduced MIP has 1818 rows, 7525 columns, and 81503 nonzeros.
Reduced MIP has 7525 binaries, 0 generals, 0 SOSs, and 0 indicators.
Presolve time = 0.06 sec. (49.58 ticks)
Probing time = 0.01 sec. (6.69 ticks)
Clique table members: 1200.
MIP emphasis: balance optimality and feasibility.
MIP search method: dynamic search.
Parallel mode: none, using 1 thread.
Root relaxation solution time = 0.65 sec. (668.27 ticks)

        Nodes                                         Cuts/
   Node  Left     Objective  IInf  Best Integer    Best Bound    ItCnt     Gap

      0     0        0.0000  1135                      0.0000     2993         
*     0+    0                            0.0000        0.0000             0.00%
      0     0        cutoff              0.0000        0.0000     2993    0.00%
Elapsed time = 1.92 sec. (1830.82 ticks, tree = 0.01 MB, solutions = 1)

Root node processing (before b&c):
  Real time             =    1.92 sec. (1831.04 ticks)
Sequential b&c:
  Real time             =    0.00 sec. (0.00 ticks)
                          ------------
Total (root+branch&cut) =    1.92 sec. (1831.04 ticks)
Version identifier: 22.1.0.0 | 2022-03-09 | 1a383f8ce
CPXPARAM_Threads                                 1
CPXPARAM_MIP_Strategy_VariableSelect             3
CPXPARAM_TimeLimit                               597.27576636499998
Tried aggregator 1 time.
MIP Presolve eliminated 13 rows and 0 columns.
MIP Presolve modified 1 coefficients.
Reduced MIP has 2118 rows, 8775 columns, and 95153 nonzeros.
Reduced MIP has 8775 binaries, 0 generals, 0 SOSs, and 0 indicators.
Presolve time = 0.06 sec. (47.16 ticks)
Probing time = 0.01 sec. (7.32 ticks)
Tried aggregator 1 time.
Detecting symmetries...
Reduced MIP has 2118 rows, 8775 columns, and 95153 nonzeros.
Reduced MIP has 8775 binaries, 0 generals, 0 SOSs, and 0 indicators.
Presolve time = 0.06 sec. (57.80 ticks)
Probing time = 0.01 sec. (7.32 ticks)
Clique table members: 1400.
MIP emphasis: balance optimality and feasibility.
MIP search method: dynamic search.
Parallel mode: none, using 1 thread.
Root relaxation solution time = 0.94 sec. (980.83 ticks)

        Nodes                                         Cuts/
   Node  Left     Objective  IInf  Best Integer    Best Bound    ItCnt     Gap

      0     0        0.0000  1243                      0.0000     3796         
*     0+    0                            0.0000        0.0000             0.00%
      0     0        cutoff              0.0000        0.0000     3796    0.00%
Elapsed time = 5.76 sec. (6651.92 ticks, tree = 0.01 MB, solutions = 1)

Root node processing (before b&c):
  Real time             =    5.76 sec. (6652.18 ticks)
Sequential b&c:
  Real time             =    0.00 sec. (0.00 ticks)
                          ------------
Total (root+branch&cut) =    5.76 sec. (6652.18 ticks)
Version identifier: 22.1.0.0 | 2022-03-09 | 1a383f8ce
CPXPARAM_Threads                                 1
CPXPARAM_MIP_Strategy_VariableSelect             3
CPXPARAM_TimeLimit                               591.463748861
Tried aggregator 1 time.
MIP Presolve eliminated 13 rows and 0 columns.
Reduced MIP has 2268 rows, 9400 columns, and 101978 nonzeros.
Reduced MIP has 9400 binaries, 0 generals, 0 SOSs, and 0 indicators.
Presolve time = 0.06 sec. (50.43 ticks)
Probing time = 0.01 sec. (7.65 ticks)
Tried aggregator 1 time.
Detecting symmetries...
Reduced MIP has 2268 rows, 9400 columns, and 101978 nonzeros.
Reduced MIP has 9400 binaries, 0 generals, 0 SOSs, and 0 indicators.
Presolve time = 0.07 sec. (61.95 ticks)
Probing time = 0.01 sec. (7.65 ticks)
Clique table members: 1500.
MIP emphasis: balance optimality and feasibility.
MIP search method: dynamic search.
Parallel mode: none, using 1 thread.
Root relaxation solution time = 1.96 sec. (2188.77 ticks)

        Nodes                                         Cuts/
   Node  Left     Objective  IInf  Best Integer    Best Bound    ItCnt     Gap

      0     0        0.0000  1560                      0.0000     6112         
*     0+    0                            0.0000        0.0000             0.00%
      0     0        cutoff              0.0000        0.0000     6112    0.00%
Elapsed time = 8.68 sec. (9479.47 ticks, tree = 0.01 MB, solutions = 1)

Root node processing (before b&c):
  Real time             =    8.68 sec. (9479.75 ticks)
Sequential b&c:
  Real time             =    0.00 sec. (0.00 ticks)
                          ------------
Total (root+branch&cut) =    8.68 sec. (9479.75 ticks)
Version identifier: 22.1.0.0 | 2022-03-09 | 1a383f8ce
CPXPARAM_Threads                                 1
CPXPARAM_MIP_Strategy_VariableSelect             3
CPXPARAM_TimeLimit                               582.73098947899996
Tried aggregator 1 time.
MIP Presolve eliminated 13 rows and 0 columns.
Reduced MIP has 2340 rows, 9700 columns, and 105254 nonzeros.
Reduced MIP has 9700 binaries, 0 generals, 0 SOSs, and 0 indicators.
Presolve time = 0.07 sec. (52.04 ticks)
Probing time = 0.01 sec. (7.77 ticks)
Tried aggregator 1 time.
Detecting symmetries...
Reduced MIP has 2340 rows, 9700 columns, and 105254 nonzeros.
Reduced MIP has 9700 binaries, 0 generals, 0 SOSs, and 0 indicators.
Presolve time = 0.08 sec. (63.93 ticks)
Probing time = 0.01 sec. (7.77 ticks)
Clique table members: 1548.
MIP emphasis: balance optimality and feasibility.
MIP search method: dynamic search.
Parallel mode: none, using 1 thread.
Root relaxation solution time = 1.79 sec. (1969.80 ticks)

        Nodes                                         Cuts/
   Node  Left     Objective  IInf  Best Integer    Best Bound    ItCnt     Gap

      0     0        0.0000  1503                      0.0000     5965         
*     0+    0                            0.0000        0.0000             0.00%
      0     0        cutoff              0.0000        0.0000     5965    0.00%
Elapsed time = 11.05 sec. (12103.92 ticks, tree = 0.01 MB, solutions = 1)

Root node processing (before b&c):
  Real time             =   11.05 sec. (12104.21 ticks)
Sequential b&c:
  Real time             =    0.00 sec. (0.00 ticks)
                          ------------
Total (root+branch&cut) =   11.05 sec. (12104.21 ticks)
Version identifier: 22.1.0.0 | 2022-03-09 | 1a383f8ce
CPXPARAM_Threads                                 1
CPXPARAM_MIP_Strategy_VariableSelect             3
CPXPARAM_TimeLimit                               571.62300630799996
Tried aggregator 1 time.
MIP Presolve eliminated 13 rows and 0 columns.
Reduced MIP has 2376 rows, 9850 columns, and 106892 nonzeros.
Reduced MIP has 9850 binaries, 0 generals, 0 SOSs, and 0 indicators.
Presolve time = 0.07 sec. (52.83 ticks)
Probing time = 0.01 sec. (7.86 ticks)
Tried aggregator 1 time.
Detecting symmetries...
Reduced MIP has 2376 rows, 9850 columns, and 106892 nonzeros.
Reduced MIP has 9850 binaries, 0 generals, 0 SOSs, and 0 indicators.
Presolve time = 0.08 sec. (64.91 ticks)
Probing time = 0.01 sec. (7.86 ticks)
Clique table members: 1572.
MIP emphasis: balance optimality and feasibility.
MIP search method: dynamic search.
Parallel mode: none, using 1 thread.
Root relaxation solution time = 1.52 sec. (1635.06 ticks)

        Nodes                                         Cuts/
   Node  Left     Objective  IInf  Best Integer    Best Bound    ItCnt     Gap

      0     0        0.0000  1558                      0.0000     5123         
      0     2        0.0000    69                      0.0000     5123         
Elapsed time = 17.46 sec. (19026.58 ticks, tree = 0.01 MB, solutions = 0)
      1     3        0.0000    51                      0.0000     6831         
*     2     1      integral     0        0.0000        0.0000     8754    0.00%
      2     0        0.0000     0        0.0000        0.0000     8754    0.00%

Root node processing (before b&c):
  Real time             =   17.37 sec. (18944.62 ticks)
Sequential b&c:
  Real time             =    1.50 sec. (1662.19 ticks)
                          ------------
Total (root+branch&cut) =   18.87 sec. (20606.81 ticks)
Version identifier: 22.1.0.0 | 2022-03-09 | 1a383f8ce
CPXPARAM_Threads                                 1
CPXPARAM_MIP_Strategy_VariableSelect             3
CPXPARAM_TimeLimit                               552.69864794299997
Tried aggregator 1 time.
MIP Presolve eliminated 13 rows and 0 columns.
Reduced MIP has 2394 rows, 9925 columns, and 107711 nonzeros.
Reduced MIP has 9925 binaries, 0 generals, 0 SOSs, and 0 indicators.
Presolve time = 0.06 sec. (53.22 ticks)
Probing time = 0.01 sec. (7.91 ticks)
Tried aggregator 1 time.
Detecting symmetries...
Reduced MIP has 2394 rows, 9925 columns, and 107711 nonzeros.
Reduced MIP has 9925 binaries, 0 generals, 0 SOSs, and 0 indicators.
Presolve time = 0.08 sec. (65.39 ticks)
Probing time = 0.01 sec. (7.91 ticks)
Clique table members: 1584.
MIP emphasis: balance optimality and feasibility.
MIP search method: dynamic search.
Parallel mode: none, using 1 thread.
Root relaxation solution time = 1.29 sec. (1381.18 ticks)

        Nodes                                         Cuts/
   Node  Left     Objective  IInf  Best Integer    Best Bound    ItCnt     Gap

      0     0        0.0000  1531                      0.0000     4590         
      0     2        0.0000    70                      0.0000     4590         
Elapsed time = 15.89 sec. (16748.88 ticks, tree = 0.01 MB, solutions = 0)
*     1     1      integral     0        0.0000        0.0000     5526    0.00%
      1     0        0.0000     0        0.0000        0.0000     5526    0.00%

Root node processing (before b&c):
  Real time             =   15.81 sec. (16679.62 ticks)
Sequential b&c:
  Real time             =    0.32 sec. (337.73 ticks)
                          ------------
Total (root+branch&cut) =   16.13 sec. (17017.35 ticks)
Version identifier: 22.1.0.0 | 2022-03-09 | 1a383f8ce
CPXPARAM_Threads                                 1
CPXPARAM_MIP_Strategy_VariableSelect             3
CPXPARAM_TimeLimit                               536.51009258600004
Tried aggregator 1 time.
MIP Presolve eliminated 13 rows and 0 columns.
Reduced MIP has 2406 rows, 9975 columns, and 108257 nonzeros.
Reduced MIP has 9975 binaries, 0 generals, 0 SOSs, and 0 indicators.
Presolve time = 0.06 sec. (53.50 ticks)
Probing time = 0.01 sec. (7.94 ticks)
Tried aggregator 1 time.
Detecting symmetries...
Reduced MIP has 2406 rows, 9975 columns, and 108257 nonzeros.
Reduced MIP has 9975 binaries, 0 generals, 0 SOSs, and 0 indicators.
Presolve time = 0.07 sec. (65.73 ticks)
Probing time = 0.01 sec. (7.94 ticks)
Clique table members: 1592.
MIP emphasis: balance optimality and feasibility.
MIP search method: dynamic search.
Parallel mode: none, using 1 thread.
Root relaxation solution time = 1.86 sec. (2085.15 ticks)

        Nodes                                         Cuts/
   Node  Left     Objective  IInf  Best Integer    Best Bound    ItCnt     Gap

      0     0        0.0000  1590                      0.0000     5688         
      0     0        0.0000   252                  Cliques: 1     6423         
      0     0        0.0000   483                    Cuts: 55    10240         
      0     2        0.0000   124                      0.0000    10240         
Elapsed time = 37.00 sec. (40398.42 ticks, tree = 0.01 MB, solutions = 0)
      1     3        0.0000   179                      0.0000    21389         
      2     4        0.0000   183                      0.0000    24833         
      3     5        0.0000   235                      0.0000    29245         
      4     6        0.0000   152                      0.0000    30020         
      5     7        0.0000   192                      0.0000    35457         
      6     8        0.0000   187                      0.0000    35884         
      7     9        0.0000   161                      0.0000    40197         
      8    10        0.0000   295                      0.0000    43522         
      9    11        0.0000   160                      0.0000    43542         
     10    12        0.0000   361                      0.0000    48650         
Elapsed time = 54.98 sec. (60400.04 ticks, tree = 0.13 MB, solutions = 0)
     11    13        0.0000   164                      0.0000    49827         
     12    14        0.0000   243                      0.0000    52616         
     14    16        0.0000   155                      0.0000    58552         
     16    18        0.0000   173                      0.0000    62232         
     17    18        0.0000   237                      0.0000    64441         
     19    20        0.0000   218                      0.0000    65251         
     21    22        0.0000   205                      0.0000    67939         
     23    24        0.0000   355                      0.0000    70370         
     24    25        0.0000   224                      0.0000    74365         
     26    27        0.0000   206                      0.0000    76841         
Elapsed time = 72.55 sec. (79092.33 ticks, tree = 0.45 MB, solutions = 0)
     28    29        0.0000   229                      0.0000    79818         
     30    31        0.0000   243                      0.0000    81137         
     32    33        0.0000   237                      0.0000    83540         
     34    35        0.0000   242                      0.0000    84634         
     35    36        0.0000   335                      0.0000    85969         
     36    36        0.0000   337                      0.0000    88161         
     38    38        0.0000   226                      0.0000    91982         
     39    39        0.0000   521                      0.0000    96743         
     41    41        0.0000   347                      0.0000    98047         
     42    42        0.0000   264                      0.0000   100341         
Elapsed time = 87.87 sec. (95444.24 ticks, tree = 0.72 MB, solutions = 0)
     43    43        0.0000   300                      0.0000   103951         
     45    45        0.0000   427                      0.0000   113360         
     46    46        0.0000   236                      0.0000   120361         
     47    47        0.0000   296                      0.0000   122725         
     48    48        0.0000   297                      0.0000   124931         
     50    50        0.0000   273                      0.0000   127717         
     52    52        0.0000   264                      0.0000   130812         
     55    55        0.0000   249                      0.0000   132546         
     58    58        0.0000   206                      0.0000   134955         
     60    60        0.0000   159                      0.0000   137497         
Elapsed time = 103.53 sec. (112282.52 ticks, tree = 1.12 MB, solutions = 0)
     62    62        0.0000   148                      0.0000   140382         
     63    63        0.0000   156                      0.0000   143833         
     64    64        0.0000   339                      0.0000   148145         
     66    66        0.0000   680                      0.0000   154029         
     68    68        0.0000   631                      0.0000   158633         
     69    69        0.0000   436                      0.0000   162429         
     70    70        0.0000   535                      0.0000   164679         
     72    72        0.0000   385                      0.0000   169584         
     73    73        0.0000   477                      0.0000   172152         
     75    75        0.0000   466                      0.0000   173363         
Elapsed time = 121.75 sec. (131677.52 ticks, tree = 1.37 MB, solutions = 0)
     77    77        0.0000   556                      0.0000   176157         
     79    79        0.0000   425                      0.0000   178883         
     80    80        0.0000   405                      0.0000   178890         
     81    81        0.0000   484                      0.0000   180680         
     83    83        0.0000   552                      0.0000   182958         
     85    85        0.0000   401                      0.0000   183516         
     87    86        0.0000   407                      0.0000   185172         
     89    88        0.0000   443                      0.0000   187329         
     90    89        0.0000   398                      0.0000   187434         
     91    90        0.0000   469                      0.0000   190817         
Elapsed time = 136.25 sec. (146221.18 ticks, tree = 1.71 MB, solutions = 0)
     93    92        0.0000   475                      0.0000   192483         
     95    94        0.0000   429                      0.0000   195710         
     97    96        0.0000   350                      0.0000   196991         
     98    97        0.0000   375                      0.0000   199733         
    101   100        0.0000   415                      0.0000   202332         
    102   101        0.0000   493                      0.0000   205840         
    105   104        0.0000   505                      0.0000   211075         
    107   106        0.0000   334                      0.0000   213438         
    109   108        0.0000   432                      0.0000   217180         
    110   109        0.0000   343                      0.0000   217251         
Elapsed time = 152.50 sec. (162922.46 ticks, tree = 2.16 MB, solutions = 0)
    111   110        0.0000   405                      0.0000   220833         
    114   113        0.0000   366                      0.0000   223767         
    116   115        0.0000   353                      0.0000   225636         
    118   117        0.0000   349                      0.0000   230220         
    120   119        0.0000   435                      0.0000   232051         
    121   120        0.0000   358                      0.0000   234925         
    122   121        0.0000   468                      0.0000   236551         
    124   123        0.0000   343                      0.0000   238209         
    125   123        0.0000   343                      0.0000   240089         
    127   125        0.0000   494                      0.0000   244430         
Elapsed time = 168.11 sec. (178880.65 ticks, tree = 2.50 MB, solutions = 0)
    129   127        0.0000   368                      0.0000   245704         
    130   128        0.0000   463                      0.0000   247259         
    132   130        0.0000   345                      0.0000   248512         
    133   131        0.0000   364                      0.0000   250259         
    135   133        0.0000   549                      0.0000   254098         
    138   136        0.0000   375                      0.0000   256369         
    140   138        0.0000   344                      0.0000   261447         
    143   139        0.0000   398                      0.0000   262116         
    144   140        0.0000   360                      0.0000   264070         
    146   142        0.0000   339                      0.0000   265206         
Elapsed time = 181.79 sec. (192850.24 ticks, tree = 2.91 MB, solutions = 0)
    147   143        0.0000   427                      0.0000   268224         
    149   145        0.0000   283                      0.0000   271649         
    150   146        0.0000   399                      0.0000   274441         
    152   148        0.0000   419                      0.0000   277681         
    154   150        0.0000   411                      0.0000   281611         
    157   153        0.0000   422                      0.0000   284713         
    159   155        0.0000   341                      0.0000   288046         
    160   156        0.0000   255                      0.0000   289440         
    161   157        0.0000   390                      0.0000   291996         
    166   162        0.0000   444                      0.0000   302831         
Elapsed time = 207.28 sec. (218552.92 ticks, tree = 3.35 MB, solutions = 0)
    170   166        0.0000   507                      0.0000   311546         
    179   175        0.0000   282                      0.0000   322141         
    183   179        0.0000   670                      0.0000   331364         
    186   182        0.0000   232                      0.0000   341749         
    190   186        0.0000   319                      0.0000   350606         
    194   190        0.0000   442                      0.0000   359631         
    199   195        0.0000   393                      0.0000   366304         
    201   197        0.0000   440                      0.0000   377553         
    204   200        0.0000   424                      0.0000   388742         
    208   204        0.0000   352                      0.0000   397338         
Elapsed time = 248.78 sec. (261157.75 ticks, tree = 4.17 MB, solutions = 0)
    213   209        0.0000   428                      0.0000   406509         
    217   213        0.0000   427                      0.0000   415384         
    220   216        0.0000   429                      0.0000   425191         
    222   216    infeasible                            0.0000   437280         
    227   221        0.0000   271                      0.0000   446968         
    232   224    infeasible                            0.0000   467895         
    236   224    infeasible                            0.0000   486024         
    240   226        0.0000   400                      0.0000   500338         
    243   229        0.0000   236                      0.0000   510860         
    246   228    infeasible                            0.0000   524603         
Elapsed time = 295.12 sec. (307655.43 ticks, tree = 4.63 MB, solutions = 0)
    249   231        0.0000   250                      0.0000   535652         
    252   234        0.0000   401                      0.0000   550784         
    257   239        0.0000   238                      0.0000   560247         
    260   242        0.0000   488                      0.0000   574404         
    265   247        0.0000   237                      0.0000   584569         
    268   250        0.0000   453                      0.0000   602000         
    272   252        0.0000   438                      0.0000   618148         
    277   257        0.0000   459                      0.0000   631320         
    281   261        0.0000   342                      0.0000   642282         
    287   267        0.0000   381                      0.0000   654387         
Elapsed time = 342.45 sec. (355716.37 ticks, tree = 5.37 MB, solutions = 0)
    291   271        0.0000   344                      0.0000   667486         
    295   275        0.0000   250                      0.0000   676621         
    299   279        0.0000   443                      0.0000   688366         
    303   283        0.0000   451                      0.0000   700544         
    315   283        0.0000   396                      0.0000   746276         
    330   286        0.0000   479                      0.0000   775775         
    347   285    infeasible                            0.0000   811840         
    364   286    infeasible                            0.0000   839404         
    377   292        0.0000   404                      0.0000   866377         
    391   300    infeasible                            0.0000   890097         
Elapsed time = 386.58 sec. (396903.85 ticks, tree = 6.17 MB, solutions = 0)
    409   302        0.0000   382                      0.0000   925705         
    425   306        0.0000   428                      0.0000   957011         
    447   306    infeasible                            0.0000   985172         
    468   310    infeasible                            0.0000  1010560         
    490   312    infeasible                            0.0000  1031822         
    513   313        0.0000   368                      0.0000  1061386         
    531   318        0.0000   407                      0.0000  1088346         
    548   328        0.0000   339                      0.0000  1108172         
    564   336        0.0000   304                      0.0000  1127164         
    588   338        0.0000   303                      0.0000  1157711         
Elapsed time = 430.64 sec. (436522.04 ticks, tree = 7.01 MB, solutions = 0)
    611   343        0.0000   306                      0.0000  1184241         
    632   352    infeasible                            0.0000  1208876         
    654   363        0.0000   260                      0.0000  1231616         
    673   378        0.0000   259                      0.0000  1253653         
    699   381        0.0000   298                      0.0000  1284067         
    721   389    infeasible                            0.0000  1309738         
    744   400        0.0000   279                      0.0000  1333983         
    765   408        0.0000   244                      0.0000  1361149         
    788   412        0.0000   244                      0.0000  1404229         
    807   416        0.0000   388                      0.0000  1441112         
Elapsed time = 478.22 sec. (477920.39 ticks, tree = 8.80 MB, solutions = 0)
    810   419        0.0000   552                      0.0000  1454707         
    818   427        0.0000   538                      0.0000  1469084         
    824   433        0.0000   896                      0.0000  1491233         
    834   443        0.0000   725                      0.0000  1509318         
    842   451        0.0000   524                      0.0000  1529911         
    851   460        0.0000   432                      0.0000  1543748         
    860   469        0.0000   498                      0.0000  1564529         
    869   478        0.0000   796                      0.0000  1586198         
    878   487        0.0000   421                      0.0000  1606216         
    887   496        0.0000   671                      0.0000  1626636         
Elapsed time = 519.61 sec. (517715.61 ticks, tree = 10.60 MB, solutions = 0)
    897   506        0.0000   627                      0.0000  1644040         
    909   518        0.0000   729                      0.0000  1651875         
    919   528        0.0000   579                      0.0000  1667579         
    928   537        0.0000   769                      0.0000  1682157         

Clique cuts applied:  9
Zero-half cuts applied:  16
Lift and project cuts applied:  1
Gomory fractional cuts applied:  1

Root node processing (before b&c):
  Real time             =   36.84 sec. (40264.30 ticks)
Sequential b&c:
  Real time             =  499.68 sec. (493717.07 ticks)
                          ------------
Total (root+branch&cut) =  536.52 sec. (533981.37 ticks)
Primal:	397
Dual:	400
Status:	Feasible
Time:	600.051
Sequence:
	12
	5
	5
